
Log started (V20.1.0.0) Tue Aug  9 09:43:31 2022


Problem 'pp.lp' read.
Read time = 0.02 sec. (0.00 ticks)
Version identifier: 20.1.0.0 | 2020-11-10 | 9bedb6d68
Tried aggregator 1 time.
No LP presolve or aggregator reductions.
Presolve time = 0.00 sec. (0.00 ticks)

Iteration log . . .
Iteration:     1   Dual objective     =             4.000000

Dual simplex - Optimal:  Objective =  5.6000000000e+00
Solution time =    0.00 sec.  Iterations = 2 (0)
Deterministic time = 0.00 ticks  (3.03 ticks/sec)


Variable Name           Solution Value
x1                            2.200000
x2                            0.400000
All other variables matching '*' are 0.

Log started (V20.1.0.0) Tue Aug  9 09:49:15 2022


Problem 'pd.lp' read.
Read time = 0.00 sec. (0.00 ticks)
Version identifier: 20.1.0.0 | 2020-11-10 | 9bedb6d68
Infeasibility row 'c1_1':  0 >= 2.
Presolve time = 0.00 sec. (0.00 ticks)
Presolve - Infeasible.
Solution time =    0.00 sec.
Deterministic time = 0.00 ticks  (0.34 ticks/sec)
